
List of user-set options:

                                    Name   Value                used
                           compl_inf_tol = 1                     yes
                         constr_viol_tol = 1                     yes
                            dual_inf_tol = 1000                  yes
                           linear_solver = ma97                  yes
                              ma86_small = 1e-30                  no
                                  ma86_u = 0.0001                 no
                              ma97_order = best                  yes
                              ma97_small = 1e-30                 yes
                            ma97_switch1 = at_start              yes
                            ma97_switch2 = od_hd_reuse           yes
                                  ma97_u = 1e-06                 yes
                               ma97_umax = 0.5                   yes
                                max_iter = 2000                  yes
                    max_refinement_steps = 20                    yes
                    min_refinement_steps = 5                     yes
                                 mu_init = 1e-06                 yes
           mu_superlinear_decrease_power = 1.25                  yes
                   nlp_scaling_min_value = 1e-08                 yes
                        option_file_name = Preset_Case:_288_NCP.opt  yes
                             output_file = ./tmp/Preset_Case:_288_NCP.output  yes
                      print_user_options = yes                   yes
        required_infeasibility_reduction = 1                      no
                                     tol = 1e-08                 yes
                   warm_start_bound_frac = 1e-20                 yes
                   warm_start_bound_push = 1e-20                 yes
                   warm_start_init_point = yes                   yes
              warm_start_mult_bound_push = 1e-20                 yes
                warm_start_mult_init_max = 1e+40                 yes
             warm_start_slack_bound_frac = 1e-20                 yes
             warm_start_slack_bound_push = 1e-20                 yes

******************************************************************************
This program contains Ipopt, a library for large-scale nonlinear optimization.
 Ipopt is released as open source code under the Eclipse Public License (EPL).
         For more information visit http://projects.coin-or.org/Ipopt
******************************************************************************

This is Ipopt version 3.12.10, running with linear solver ma97.

Number of nonzeros in equality constraint Jacobian...:   117140
Number of nonzeros in inequality constraint Jacobian.:      213
Number of nonzeros in Lagrangian Hessian.............:    47462

Total number of variables............................:    29971
                     variables with only lower bounds:    11312
                variables with lower and upper bounds:    15132
                     variables with only upper bounds:        0
Total number of equality constraints.................:    29864
Total number of inequality constraints...............:       25
        inequality constraints with only lower bounds:        4
   inequality constraints with lower and upper bounds:        0
        inequality constraints with only upper bounds:       21

iter    objective    inf_pr   inf_du lg(mu)  ||d||  lg(rg) alpha_du alpha_pr  ls
   0 -3.0552699e-02 2.57e-01 4.61e+01  -6.0 0.00e+00    -  0.00e+00 0.00e+00   0
In iteration 0, 4 Slacks too small, adjusting variable bounds
   1 -3.0552699e-02 2.57e-01 9.43e+03  -6.0 1.44e+06  -2.0 4.67e-09 8.50e-17f  1
   2 -3.0552699e-02 2.57e-01 9.43e+03  -6.0 4.48e+02  -2.5 1.34e-04 4.72e-09f  1
   3 -3.0566551e-02 2.57e-01 9.43e+03  -6.0 5.52e+02  -3.0 1.03e-05 6.93e-04f  1
   4 -3.0570127e-02 2.57e-01 9.42e+03  -6.0 5.52e+02  -3.4 9.63e-04 1.31e-04f  1
   5 -3.0585675e-02 2.57e-01 9.41e+03  -6.0 5.52e+02  -3.0 5.15e-04 7.24e-04f  1
   6 -3.0588294e-02 2.57e-01 9.41e+03  -6.0 5.53e+02  -3.5 7.14e-04 8.36e-05f  1
   7 -3.0753205e-02 2.55e-01 9.41e+03  -6.0 5.52e+02  -3.1 5.06e-05 7.63e-03f  1
   8 -3.0954614e-02 2.54e-01 9.41e+03  -6.0 5.69e+02  -3.5 7.18e-05 3.25e-03f  1
   9 -3.0967061e-02 2.54e-01 9.33e+03  -6.0 5.50e+02  -3.1 8.02e-03 3.68e-04f  1
iter    objective    inf_pr   inf_du lg(mu)  ||d||  lg(rg) alpha_du alpha_pr  ls
  10 -3.1195401e-02 2.54e-01 9.33e+03  -6.0 1.48e+03  -3.6 3.58e-04 8.66e-04h  1
  11 -3.1195488e-02 2.54e-01 9.32e+03  -6.0 5.51e+02  -3.2 5.51e-04 3.64e-05h  1
  12 -3.1196295e-02 2.53e-01 9.29e+03  -6.0 5.47e+02  -2.7 4.05e-03 3.35e-04f  1
  13 -3.1201899e-02 2.52e-01 9.28e+03  -6.0 5.50e+02  -3.2 8.07e-04 4.87e-03h  1
  14 -3.1195600e-02 2.51e-01 1.64e+04  -6.0 5.43e+02  -2.8 2.80e-02 4.74e-03h  1
  15 -3.1179427e-02 2.51e-01 1.71e+04  -6.0 5.42e+02  -3.3 6.22e-03 1.70e-03h  1
  16 -3.1190811e-02 2.47e-01 4.42e+04  -6.0 5.37e+02  -2.8 3.53e-02 1.35e-02f  1
  17 -3.1159339e-02 2.47e-01 5.14e+04  -6.0 5.11e+02  -3.3 1.22e-02 2.58e-03h  3
  18 -3.1124239e-02 2.45e-01 9.45e+05  -6.0 5.10e+02  -2.9 6.63e-01 5.07e-03h  3
  19 -3.1161326e-02 2.44e-01 9.40e+05  -6.0 5.01e+02  -3.4 4.27e-07 4.13e-03h  1
iter    objective    inf_pr   inf_du lg(mu)  ||d||  lg(rg) alpha_du alpha_pr  ls
  20r-3.1161326e-02 2.44e-01 1.00e+03  -0.6 0.00e+00  -1.1 0.00e+00 2.48e-07R  2
  21r-3.1325475e-02 2.44e-01 2.21e+03  -0.6 3.97e+03    -  3.52e-05 6.86e-06f  1
  22 -3.1325471e-02 2.44e-01 1.09e+05  -6.0 2.37e+02    -  1.10e-03 3.12e-07h  4
  23 -3.1320689e-02 2.44e-01 3.64e+07  -6.0 6.22e+02    -  1.35e-06 4.52e-04h  1
  24 -3.1315385e-02 2.44e-01 3.64e+07  -6.0 5.13e+02    -  2.69e-03 4.97e-04h  1
  25 -3.1312679e-02 2.44e-01 3.64e+07  -6.0 5.13e+02    -  1.14e-03 2.42e-04h  1
  26 -3.1232407e-02 2.42e-01 3.62e+07  -6.0 5.14e+02    -  1.30e-02 7.06e-03h  1
  27 -3.1137868e-02 2.40e-01 3.59e+07  -6.0 5.09e+02    -  9.06e-03 6.36e-03h  1
  28 -3.0890975e-02 2.37e-01 3.54e+07  -6.0 5.03e+02    -  6.56e-03 1.42e-02h  3
  29 -3.0596023e-02 2.34e-01 3.49e+07  -6.0 4.89e+02    -  6.93e-02 1.40e-02h  3
iter    objective    inf_pr   inf_du lg(mu)  ||d||  lg(rg) alpha_du alpha_pr  ls
  30 -3.0272405e-02 2.31e-01 3.45e+07  -6.0 4.77e+02    -  2.95e-02 1.20e-02h  4
  31 -2.9845741e-02 2.27e-01 3.40e+07  -6.0 4.64e+02    -  2.41e-02 1.55e-02h  4
  32 -2.9363064e-02 2.23e-01 3.34e+07  -6.0 4.48e+02    -  1.08e-01 1.68e-02h  4
  33 -2.8826107e-02 2.19e-01 3.28e+07  -6.0 4.29e+02    -  1.11e-01 1.83e-02h  4
  34 -2.8559688e-02 2.17e-01 3.25e+07  -6.0 4.08e+02    -  1.49e-01 8.93e-03h  5
  35 -2.8364172e-02 2.16e-01 3.23e+07  -6.0 3.94e+02    -  1.61e-01 6.98e-03h  5
  36 -2.8244037e-02 2.15e-01 3.21e+07  -6.0 3.81e+02    -  1.65e-01 4.91e-03h  4
  37 -2.8142028e-02 2.14e-01 3.20e+07  -6.0 3.76e+02    -  1.58e-01 5.18e-03h  3
  38 -2.7952278e-02 2.11e-01 3.16e+07  -6.0 4.04e+02    -  1.86e-01 1.24e-02w  1
  39 -2.5962893e-02 6.71e+00 2.63e+07  -6.0 4.48e+02    -  2.42e-01 1.68e-01w  1
iter    objective    inf_pr   inf_du lg(mu)  ||d||  lg(rg) alpha_du alpha_pr  ls
  40 -2.2280654e-02 7.95e+00 2.35e+07  -6.0 5.33e+02    -  1.23e-01 1.04e-01w  1
  41 -2.8094591e-02 2.13e-01 3.19e+07  -6.0 5.75e+02    -  1.86e-01 3.10e-03h  2
  42 -2.8068612e-02 2.12e-01 3.18e+07  -6.0 4.43e+02    -  2.33e-01 2.60e-03h  4
  43 -2.8058310e-02 2.12e-01 3.17e+07  -6.0 5.03e+02    -  6.29e-02 2.42e-03h  7
  44 -2.8060109e-02 2.11e-01 3.16e+07  -6.0 5.19e+02    -  2.52e-01 2.60e-03h  7
  45 -2.8071368e-02 2.11e-01 3.15e+07  -6.0 6.08e+02    -  1.31e-02 2.67e-03h  7
  46 -2.8082236e-02 2.10e-01 3.14e+07  -6.0 6.13e+02    -  2.83e-01 2.68e-03h  7
  47 -2.8102319e-02 2.10e-01 3.14e+07  -6.0 7.39e+02    -  1.48e-02 2.86e-03h  7
  48 -2.8122246e-02 2.09e-01 3.13e+07  -6.0 7.45e+02    -  2.69e-01 2.87e-03h  7
  49 -2.8149351e-02 2.08e-01 3.12e+07  -6.0 8.82e+02    -  1.71e-02 3.13e-03h  7
iter    objective    inf_pr   inf_du lg(mu)  ||d||  lg(rg) alpha_du alpha_pr  ls
  50 -2.9860667e-02 1.32e+01 2.50e+07  -6.0 8.89e+02    -  2.94e-01 1.99e-01h  1
  51 -2.9875241e-02 1.31e+01 2.49e+07  -6.0 1.97e+02  -1.6 7.52e-07 2.48e-03h  1
  52 -2.9895512e-02 1.31e+01 2.48e+07  -6.0 2.03e+02  -2.1 6.26e-02 4.25e-03h  1
  53 -3.0390103e-02 1.27e+01 2.66e+07  -6.0 2.20e+02  -2.6 1.68e-02 7.29e-02h  1
  54 -3.0892792e-02 1.26e+01 2.66e+07  -6.0 2.11e+02  -3.0 6.65e-02 1.63e-02h  1
  55 -3.0264561e-02 1.24e+01 2.62e+07  -6.0 3.25e+02  -3.5 5.54e-07 2.30e-02h  4
  56 -3.0507556e-02 1.23e+01 2.60e+07  -6.0 1.97e+02  -3.1 1.02e-01 5.63e-03h  1
  57 -3.0163814e-02 1.21e+01 2.56e+07  -6.0 3.53e+02  -3.6 5.76e-07 1.82e-02h  4
  58 -2.9981695e-02 1.21e+01 2.55e+07  -6.0 3.39e+02  -3.1 7.28e-03 1.45e-03h  5
  59 -3.0149103e-02 1.20e+01 1.45e+08  -6.0 1.98e+02  -2.7 1.80e-01 1.09e-02h  1
iter    objective    inf_pr   inf_du lg(mu)  ||d||  lg(rg) alpha_du alpha_pr  ls
  60 -3.0025274e-02 1.19e+01 1.39e+08  -6.0 2.82e+02  -3.2 3.67e-06 1.22e-02h  5
  61 -2.9989629e-02 1.19e+01 3.71e+08  -6.0 2.23e+02  -2.8 1.94e-01 2.17e-03h  7
  62 -2.9986495e-02 1.19e+01 3.72e+08  -6.0 3.49e+02  -3.2 3.56e-04 3.32e-05h 11
  63r-2.9986495e-02 1.19e+01 1.00e+03   0.5 0.00e+00  -2.8 0.00e+00 3.99e-07R 19
  64r-3.0031769e-02 1.18e+01 1.00e+03   0.5 7.23e+04    -  8.46e-09 4.28e-07f  1
  65 -3.0031421e-02 1.18e+01 2.44e+03  -6.0 2.58e+02    -  4.73e-02 1.97e-05h  1
  66 -2.9974264e-02 1.18e+01 9.62e+03  -6.0 2.61e+02    -  1.46e-01 3.26e-03h  1
  67 -2.7691514e-02 1.13e+01 7.93e+03  -6.0 2.74e+02    -  1.10e-02 4.85e-02h  2
  68 -2.7435111e-02 1.12e+01 8.00e+03  -6.0 2.58e+02    -  1.13e-02 6.46e-03h  5
  69 -2.7433144e-02 1.12e+01 9.49e+03  -6.0 2.56e+02    -  5.98e-02 4.97e-05h 12
iter    objective    inf_pr   inf_du lg(mu)  ||d||  lg(rg) alpha_du alpha_pr  ls
  70 -2.7432671e-02 1.12e+01 9.76e+03  -6.0 2.63e+02    -  1.24e-02 1.12e-05h 14
  71 -2.3632316e-02 1.03e+01 8.89e+03  -6.0 2.64e+02    -  8.86e-02 8.86e-02s 19
  72r-2.3632316e-02 1.03e+01 1.00e+03   0.4 0.00e+00    -  0.00e+00 0.00e+00R  1
  73r-2.3591978e-02 1.03e+01 2.21e+04   0.4 6.12e+03    -  2.13e-06 7.12e-07f  1
  74 -2.3591371e-02 1.03e+01 8.36e+06  -6.0 2.13e+02    -  1.04e-01 2.73e-05h  1
  75 -2.2407381e-02 9.85e+00 1.42e+10  -6.0 5.12e+02    -  2.90e-05 4.91e-02h  1
  76 -2.1743033e-02 9.58e+00 1.38e+10  -6.0 2.03e+02    -  1.81e-01 2.85e-02h  1
  77 -2.1556140e-02 9.47e+00 1.36e+10  -6.0 2.25e+02    -  1.06e-01 1.15e-02h  1
  78 -2.1529398e-02 9.45e+00 1.36e+10  -6.0 3.24e+02    -  9.03e-02 2.56e-03h  1
  79 -2.1476897e-02 9.33e+00 1.34e+10  -6.0 3.38e+02    -  4.08e-03 1.31e-02h  1
iter    objective    inf_pr   inf_du lg(mu)  ||d||  lg(rg) alpha_du alpha_pr  ls
  80 -2.1456944e-02 9.31e+00 1.34e+10  -6.0 3.89e+02    -  2.16e-01 2.10e-03h  1
  81 -2.1330016e-02 9.17e+00 1.31e+10  -6.0 4.04e+02    -  2.40e-03 1.76e-02h  1
  82 -2.0246158e-02 8.86e+00 1.15e+10  -6.0 4.12e+02    -  2.78e-01 1.23e-01h  1
  83r-2.0246158e-02 8.86e+00 1.00e+03   0.4 0.00e+00    -  0.00e+00 3.92e-07R  5
  84r-2.0147475e-02 8.84e+00 3.56e+03   0.4 6.51e+03    -  2.29e-06 2.09e-06f  1
  85 -2.0147282e-02 8.84e+00 6.53e+05  -6.0 2.54e+02    -  4.27e-02 2.65e-05h  1
  86 -2.0141317e-02 8.84e+00 1.20e+07  -6.0 3.04e+02    -  3.30e-05 6.09e-04h  1
  87 -2.0119020e-02 8.82e+00 1.20e+07  -6.0 3.16e+02    -  5.57e-02 1.86e-03h  1
  88 -1.9937101e-02 8.65e+00 1.18e+07  -6.0 3.42e+02    -  2.53e-03 2.89e-02h  1
  89 -1.9927796e-02 8.63e+00 1.17e+07  -6.0 2.95e+02    -  1.00e-01 2.44e-03h  1
iter    objective    inf_pr   inf_du lg(mu)  ||d||  lg(rg) alpha_du alpha_pr  ls
  90 -1.9717900e-02 8.45e+00 1.13e+07  -6.0 3.30e+02    -  4.91e-02 3.97e-02h  1
  91r-1.9717900e-02 8.45e+00 1.00e+03   0.4 0.00e+00    -  0.00e+00 3.32e-07R  3
  92r-1.9717893e-02 8.45e+00 1.00e+03   0.4 2.48e+04    -  7.75e-08 6.05e-10f  2
  93r-1.9717893e-02 8.45e+00 9.99e+02   0.4 0.00e+00    -  0.00e+00 4.91e-07R  2
  94r-1.9717517e-02 8.45e+00 8.95e+03   0.4 1.06e+04    -  2.66e-06 1.44e-08f  1
  95 -1.9717311e-02 8.45e+00 1.33e+06  -6.0 2.39e+02    -  3.26e-02 3.09e-05h  1
  96 -1.9713896e-02 8.44e+00 7.70e+07  -6.0 2.88e+02    -  3.24e-05 1.87e-03h  1
  97 -1.9710491e-02 8.43e+00 7.70e+07  -6.0 3.73e+02    -  9.78e-02 5.21e-04h  1
  98 -1.9531879e-02 8.31e+00 7.57e+07  -6.0 2.86e+02    -  2.47e-03 1.75e-02h  1
  99 -1.9214587e-02 8.18e+00 7.01e+07  -6.0 2.98e+02    -  9.31e-02 7.36e-02h  1
iter    objective    inf_pr   inf_du lg(mu)  ||d||  lg(rg) alpha_du alpha_pr  ls
 100r-1.9214587e-02 8.18e+00 1.00e+03   0.3 0.00e+00    -  0.00e+00 2.14e-07R  2
 101r-1.9212171e-02 8.18e+00 1.00e+03   0.3 9.88e+03    -  4.54e-06 7.79e-08f  1
 102 -1.9212060e-02 8.18e+00 6.73e+04  -6.0 2.29e+02    -  5.58e-02 1.91e-05h  1
 103 -1.9212053e-02 8.18e+00 3.33e+03  -6.0 2.62e+02    -  1.01e-04 7.86e-07h  2
 104 -1.9191069e-02 8.16e+00 1.72e+05  -6.0 2.58e+02    -  1.34e-01 2.39e-03h  1
 105 -1.9060240e-02 7.99e+00 1.33e+06  -6.0 2.99e+02    -  2.50e-03 2.53e-02h  1
 106 -1.9039908e-02 7.98e+00 1.55e+06  -6.0 3.69e+02    -  1.26e-02 1.11e-03h  1
 107 -1.8624561e-02 7.63e+00 2.67e+06  -6.0 3.09e+02    -  2.39e-01 7.43e-02h  1
 108 -1.6627927e-02 6.22e+00 9.91e+05  -6.0 3.22e+02    -  8.71e-02 3.00e-01h  1
 109 -1.5198679e-02 4.62e+00 1.09e+06  -6.0 1.95e+02    -  1.98e-01 2.51e-01h  1
iter    objective    inf_pr   inf_du lg(mu)  ||d||  lg(rg) alpha_du alpha_pr  ls
 110 -1.5198664e-02 4.62e+00 1.09e+06  -6.0 1.50e+02    -  3.72e-04 4.72e-06h  2
 111 -1.5195105e-02 4.62e+00 1.10e+06  -6.0 1.50e+02    -  9.94e-03 1.12e-03h  1
 112 -1.5304992e-02 3.81e+00 1.89e+06  -6.0 1.05e+02    -  8.68e-04 1.97e-01h  1
 113 -1.5304933e-02 3.81e+00 1.89e+06  -6.0 7.07e+01    -  1.19e-01 1.56e-05h  1
 114 -1.4965860e-02 3.55e+00 1.75e+06  -6.0 9.34e+01    -  2.15e-02 7.49e-02h  1
 115 -1.4736804e-02 3.45e+00 1.70e+06  -6.0 1.02e+02    -  2.05e-01 2.80e-02h  1
 116 -1.0016724e-02 1.75e+00 1.36e+06  -6.0 1.05e+02    -  1.70e-01 5.18e-01h  1
 117 -8.4016787e-03 1.55e+00 2.44e+06  -6.0 1.66e+02    -  4.12e-06 1.23e-01h  1
 118 -9.8859815e-03 1.04e+00 4.78e+06  -6.0 1.15e+02    -  5.92e-04 3.88e-01h  1
 119 -9.9275797e-03 1.02e+00 3.20e+06  -6.0 6.55e+01    -  1.91e-01 2.16e-02h  1
iter    objective    inf_pr   inf_du lg(mu)  ||d||  lg(rg) alpha_du alpha_pr  ls
 120 -1.1769567e-02 4.65e-01 1.32e+06  -6.0 6.49e+01    -  1.61e-01 5.53e-01h  1
 121 -1.2231232e-02 5.24e-02 2.36e+08  -6.0 2.57e+01    -  3.20e-03 1.00e+00h  1
 122 -1.2300918e-02 6.20e-04 3.71e+07  -6.0 1.83e+00    -  5.27e-03 1.00e+00h  1
 123 -1.2387897e-02 9.59e-06 8.38e+04  -6.0 5.83e-01    -  9.21e-01 1.00e+00h  1
 124 -1.3585198e-02 1.67e-03 1.81e+04  -6.0 7.69e+00    -  5.52e-01 1.00e+00h  1
 125 -1.6448717e-02 8.24e-03 6.85e+03  -6.0 1.98e+01    -  6.21e-01 8.51e-01h  1
 126 -2.0683616e-02 4.43e-02 5.85e+03  -6.0 5.28e+01    -  1.46e-01 7.30e-01f  1
 127 -2.2261447e-02 4.38e-02 5.69e+03  -6.0 2.49e+02    -  2.58e-02 2.44e-02h  1
 128 -2.3014898e-02 4.04e-02 4.99e+03  -6.0 6.29e+01    -  1.24e-01 1.07e-01h  1
 129 -3.1029360e-02 2.27e-01 3.48e+03  -6.0 7.37e+01    -  3.03e-01 1.00e+00f  1
iter    objective    inf_pr   inf_du lg(mu)  ||d||  lg(rg) alpha_du alpha_pr  ls
 130 -3.3215875e-02 1.88e-01 1.78e+03  -6.0 1.06e+02    -  4.89e-01 2.14e-01h  1
 131 -5.1543175e-02 1.14e+00 6.37e+02  -6.0 2.17e+02    -  6.42e-01 9.13e-01h  1
 132 -5.9912661e-02 1.26e+00 5.89e+02  -6.0 9.60e+02    -  7.49e-02 9.12e-02h  1
 133 -5.9923096e-02 1.23e+00 5.83e+02  -6.0 2.78e+00  -3.3 1.02e-02 1.80e-02h  1
 134 -5.9957792e-02 1.18e+00 5.14e+02  -6.0 3.35e+00  -3.8 1.19e-01 4.28e-02h  1
 135 -6.0051875e-02 1.17e+00 5.07e+02  -6.0 1.31e+02    -  1.36e-02 6.94e-03h  1
 136 -6.0208527e-02 6.67e-01 4.80e+02  -6.0 3.63e+00  -4.2 5.53e-02 4.32e-01f  1
 137 -6.0259742e-02 6.13e-01 3.82e+02  -6.0 1.96e+00  -4.7 2.04e-01 8.07e-02h  1
 138 -6.0579016e-02 1.81e-01 3.83e+02  -6.0 5.95e+00  -5.2 2.66e-04 7.05e-01f  1
 139 -6.0720963e-02 1.71e-01 2.79e+02  -6.0 1.03e+01  -5.7 2.71e-01 5.40e-02h  1
iter    objective    inf_pr   inf_du lg(mu)  ||d||  lg(rg) alpha_du alpha_pr  ls
 140 -6.3533458e-02 2.62e+00 4.84e+03  -6.0 2.70e+01  -6.2 1.97e-05 6.80e-01f  1
 141 -6.3622754e-02 2.36e+00 4.35e+03  -6.0 5.73e+00  -4.8 4.28e-01 1.01e-01h  1
 142 -6.3712761e-02 2.35e+00 4.33e+03  -6.0 6.01e+02    -  1.56e-03 4.20e-03h  1
 143 -6.4094400e-02 2.30e+00 4.24e+03  -6.0 3.19e+02    -  4.30e-03 2.23e-02h  1
 144 -6.5748986e-02 2.50e+00 3.84e+03  -6.0 3.36e+02    -  2.46e-02 9.32e-02f  1
 145 -6.6734776e-02 2.52e+00 3.67e+03  -6.0 4.01e+02    -  1.43e-01 4.61e-02f  1
 146 -6.7096163e-02 1.30e+00 1.91e+03  -6.0 7.95e+00  -5.3 8.37e-02 4.78e-01h  1
 147 -6.7756580e-02 1.41e+00 1.90e+03  -6.0 2.75e+03    -  2.36e-02 8.34e-03h  1
 148 -6.8082611e-02 7.85e-01 1.06e+03  -6.0 8.35e+00  -5.8 5.00e-01 4.42e-01f  1
 149 -7.0348742e-02 6.91e+00 3.11e+02  -6.0 2.06e+01  -6.3 5.34e-01 8.37e-01h  1
iter    objective    inf_pr   inf_du lg(mu)  ||d||  lg(rg) alpha_du alpha_pr  ls
 150 -7.1165340e-02 2.45e+00 1.23e+02  -6.0 1.27e+01  -5.8 5.26e-01 6.49e-01h  1
 151 -7.1615331e-02 2.13e+00 3.82e+02  -6.0 4.50e+01  -6.3 6.50e-02 1.27e-01h  1
 152 -7.1712692e-02 1.96e+00 1.05e+02  -6.0 1.00e+01  -5.9 3.45e-01 8.37e-02h  1
 153 -7.2312828e-02 1.55e+00 4.38e+02  -6.0 8.79e+01  -6.4 1.37e-01 1.96e-01f  1
 154 -7.3311759e-02 6.16e-01 2.53e+02  -6.0 1.04e+01  -5.9 8.44e-01 6.09e-01h  1
 155 -7.4589069e-02 9.28e-01 3.81e+03  -6.0 2.91e+01  -6.4 7.27e-01 3.98e-01h  1
 156 -7.9578044e-02 2.11e+01 6.45e+02  -6.0 1.12e+02  -6.9 4.42e-01 5.64e-01h  1
 157 -8.2223271e-02 2.16e+01 1.31e+06  -6.0 2.22e+02  -7.4 3.32e-03 1.99e-01h  1
 158 -8.7198204e-02 2.09e+01 1.11e+06  -6.0 7.23e+02  -7.8 7.36e-02 1.52e-01h  1
 159 -8.9530395e-02 1.97e+01 1.04e+06  -6.0 9.75e+02  -8.3 1.70e-01 6.56e-02h  1
iter    objective    inf_pr   inf_du lg(mu)  ||d||  lg(rg) alpha_du alpha_pr  ls
 160 -1.0100667e-01 1.98e+01 9.02e+05  -6.0 2.52e+03  -8.8 1.02e-01 1.33e-01h  1
 161 -1.0783459e-01 2.35e+01 6.33e+05  -6.0 3.69e+03  -9.3 1.42e-01 2.98e-01h  1
 162 -1.0818422e-01 2.28e+01 6.15e+05  -6.0 1.24e+03  -8.9 4.73e-01 2.81e-02h  1
 163 -1.1133450e-01 1.02e+01 2.48e+05  -6.0 6.03e+02  -8.4 3.51e-01 5.97e-01h  1
 164 -1.1385258e-01 9.45e+00 1.28e+05  -6.0 9.66e+02  -8.9 5.71e-03 4.82e-01h  1
 165 -1.1499584e-01 9.42e+00 1.16e+05  -6.0 3.47e+03  -9.4 2.02e-01 8.89e-02h  1
 166 -1.1604823e-01 9.61e+00 5.00e+04  -6.0 9.50e+02  -9.0 4.65e-01 5.67e-01h  1
 167 -1.1718172e-01 6.30e+00 2.17e+04  -6.0 5.95e+02  -8.5 3.64e-01 5.64e-01h  1
 168 -1.1739145e-01 6.05e+00 2.08e+04  -6.0 5.83e+02  -9.0 5.54e-02 3.96e-02h  1
 169 -1.1837872e-01 1.64e+00 5.42e+03  -6.0 1.93e+02  -8.6 6.04e-01 7.44e-01h  1
iter    objective    inf_pr   inf_du lg(mu)  ||d||  lg(rg) alpha_du alpha_pr  ls
 170 -1.1886073e-01 1.51e+00 4.71e+03  -6.0 6.75e+02  -9.1 1.08e-01 1.32e-01h  1
 171 -1.1966148e-01 1.03e+00 2.34e+03  -6.0 2.46e+02  -8.6 7.19e-01 5.05e-01h  1
 172 -1.2119047e-01 3.27e+00 1.40e+03  -6.0 9.03e+02  -9.1 3.53e-01 4.03e-01h  1
 173 -1.2195257e-01 2.42e+00 9.63e+02  -6.0 8.94e+02  -8.7 3.88e-01 3.14e-01h  1
 174 -1.2388677e-01 1.02e+01 4.87e+02  -6.0 1.31e+03  -9.2 1.01e-03 4.96e-01h  1
 175 -1.2398497e-01 6.26e+00 3.00e+02  -6.0 2.58e+02  -6.9 2.31e-02 3.86e-01h  1
 176 -1.2405692e-01 3.04e+00 1.46e+02  -6.0 1.66e+01  -7.4 6.00e-01 5.14e-01h  1
 177 -1.2432190e-01 4.92e-02 2.62e+00  -6.0 5.23e+01  -7.9 1.00e+00 1.00e+00h  1
 178 -1.2459229e-01 1.17e-01 3.73e+01  -6.0 1.62e+02  -8.4 3.79e-01 4.05e-01h  1
 179 -1.2515064e-01 7.62e-01 5.90e+02  -6.0 5.04e+02  -8.8 6.81e-01 3.66e-01h  1
iter    objective    inf_pr   inf_du lg(mu)  ||d||  lg(rg) alpha_du alpha_pr  ls
 180 -1.2700735e-01 1.84e+01 1.41e+01  -6.0 1.71e+03  -9.3 4.41e-01 5.55e-01h  1
 181 -1.2709852e-01 1.49e+01 4.45e+03  -6.0 3.34e+02  -8.9 6.35e-01 1.98e-01h  1
 182 -1.2769913e-01 1.12e+01 2.63e+05  -6.0 9.97e+02  -9.4 1.07e-02 2.92e-01h  1
 183 -1.2804577e-01 1.01e+01 2.35e+05  -6.0 4.22e+03  -9.8 2.39e-01 1.06e-01h  1
 184 -1.2851089e-01 1.03e+01 1.95e+05  -6.0 6.71e+03 -10.3 3.33e-01 1.68e-01h  1
 185 -1.2908533e-01 9.99e+00 1.75e+05  -6.0 1.19e+04 -10.8 1.60e-01 1.02e-01h  1
 186 -1.2931087e-01 9.92e+00 1.74e+05  -6.0 8.46e+04 -11.3 2.74e-02 6.60e-03h  1
 187 -1.3003273e-01 9.45e+00 1.66e+05  -6.0 2.99e+04 -10.8 4.73e-02 4.93e-02h  1
 188 -1.3056336e-01 8.84e+00 1.38e+05  -6.0 8.66e+03 -10.4 7.03e-03 1.64e-01h  1
 189 -1.3077331e-01 7.25e+00 1.18e+05  -6.0 8.22e+02  -8.2 1.72e-02 1.47e-01h  1
iter    objective    inf_pr   inf_du lg(mu)  ||d||  lg(rg) alpha_du alpha_pr  ls
 190 -1.3097483e-01 5.31e+00 8.86e+04  -6.0 2.04e+02  -7.8 1.96e-02 2.50e-01f  1
 191 -1.3123644e-01 4.08e+00 5.70e+04  -6.0 5.53e+01  -7.3 1.11e-01 3.57e-01h  1
 192 -1.3131020e-01 3.83e+00 5.07e+04  -6.0 3.29e+01  -6.9 3.71e-01 1.11e-01h  1
 193 -1.3146928e-01 5.43e+00 4.05e+04  -6.0 3.72e+01  -7.4 5.62e-01 2.00e-01h  1
 194 -1.3183279e-01 2.70e+00 2.08e+04  -6.0 6.08e+01  -7.9 4.05e-01 4.89e-01h  1
 195 -1.3233625e-01 2.22e+00 1.15e+04  -6.0 1.68e+02  -8.3 1.00e+00 4.50e-01h  1
 196 -1.3358141e-01 2.14e+00 2.23e+03  -6.0 3.50e+02  -8.8 6.39e-01 8.12e-01h  1
 197 -1.3399246e-01 1.76e+01 1.97e+03  -6.0 3.95e+03  -9.3 2.87e-02 1.20e-01h  1
 198 -1.3467232e-01 1.85e+01 1.25e+03  -6.0 5.49e+02  -8.9 2.58e-01 3.64e-01h  1
 199 -1.3476041e-01 1.94e+01 1.12e+03  -6.0 1.10e+02  -7.5 2.64e-01 1.04e-01h  1
iter    objective    inf_pr   inf_du lg(mu)  ||d||  lg(rg) alpha_du alpha_pr  ls
 200 -1.3546197e-01 6.25e+00 5.49e+01  -6.0 6.53e+01  -8.0 1.00e+00 9.56e-01h  1
 201 -1.3596573e-01 1.16e+01 1.89e+02  -6.0 2.75e+02  -8.5 5.88e-01 3.46e-01h  1
 202 -1.3597033e-01 1.15e+01 4.44e+02  -6.0 1.84e+04    -  1.58e-01 6.98e-03h  1
 203 -1.3626523e-01 1.25e+00 8.16e+02  -6.0 1.54e+02  -9.0 3.53e-01 1.00e+00f  1
 204 -1.3661322e-01 3.12e+00 2.22e+02  -6.0 2.13e+03    -  3.48e-01 2.43e-01h  1
 205 -1.3723429e-01 4.74e+00 4.18e+03  -6.0 4.39e+02  -9.4 1.05e-01 9.82e-01h  1
 206 -1.3723871e-01 4.71e+00 5.63e+02  -6.0 6.20e+03  -9.9 2.20e-01 5.97e-03h  2
 207 -1.3727070e-01 4.47e+00 1.10e+03  -6.0 2.98e+03    -  7.85e-02 5.12e-02h  2
 208 -1.3730036e-01 4.25e+00 1.96e+03  -6.0 1.53e+03    -  2.91e-01 4.90e-02h  1
 209 -1.3767491e-01 2.69e+00 1.53e+06  -6.0 1.09e+03    -  7.59e-03 1.00e+00h  1
iter    objective    inf_pr   inf_du lg(mu)  ||d||  lg(rg) alpha_du alpha_pr  ls
 210 -1.3768186e-01 2.61e+00 1.48e+06  -6.0 7.27e+02    -  1.74e-01 3.08e-02h  1
 211 -1.3766016e-01 1.58e+00 8.94e+05  -6.0 5.69e+02    -  1.00e+00 3.96e-01h  1
 212 -1.3766419e-01 1.28e+00 7.23e+05  -6.0 4.66e+02 -10.4 1.96e-02 1.91e-01H  1
 213 -1.3770801e-01 1.83e+00 4.94e+03  -6.0 2.38e+02 -10.9 4.10e-01 1.00e+00H  1
 214 -1.3777434e-01 7.19e-01 7.13e+02  -6.0 1.85e+02 -10.5 1.00e+00 8.63e-01h  1
 215 -1.3777830e-01 1.53e+00 6.49e+02  -6.0 2.77e+03    -  6.51e-01 8.99e-02h  2
 216 -1.3777730e-01 1.43e+00 6.09e+02  -6.0 1.49e+03 -10.0 2.71e-01 6.25e-02h  5
 217 -1.3786342e-01 2.52e+00 1.64e+01  -6.0 1.30e+01  -8.7 1.00e+00 1.00e+00h  1
 218 -1.3786986e-01 1.44e-02 8.48e+01  -6.0 1.71e+01  -9.2 1.99e-01 1.00e+00h  1
 219 -1.3780875e-01 1.61e+00 1.17e+01  -6.0 5.75e+01  -9.7 1.00e+00 1.00e+00h  1
iter    objective    inf_pr   inf_du lg(mu)  ||d||  lg(rg) alpha_du alpha_pr  ls
 220 -1.3772661e-01 5.34e-01 1.35e+01  -6.0 2.16e+02 -10.1 3.87e-01 1.00e+00H  1
 221 -1.3767084e-01 9.34e-01 9.30e+00  -6.0 9.83e+01  -9.7 1.00e+00 1.00e+00h  1
 222 -1.3763389e-01 1.11e+00 1.13e+01  -6.0 9.11e+02 -10.2 1.29e-01 8.01e-02h  2
 223 -1.3760126e-01 1.14e+00 7.90e+01  -6.0 2.83e+02  -9.8 7.46e-01 1.03e-01h  2
 224 -1.3757404e-01 1.15e+00 7.99e+01  -6.0 1.42e+03 -10.2 1.96e-01 6.61e-02h  2
 225 -1.3754934e-01 1.10e+00 1.23e+02  -6.0 2.47e+03 -10.7 8.93e-01 8.57e-02h  2
 226 -1.3735433e-01 1.27e+01 8.26e+01  -6.0 1.17e+03    -  4.26e-01 8.84e-01H  1
 227 -1.3724791e-01 2.26e+00 5.38e+01  -6.0 3.91e+02    -  4.70e-01 1.00e+00h  1
 228 -1.3735324e-01 5.94e-01 9.30e+00  -6.0 1.93e+02    -  1.00e+00 1.00e+00h  1
 229 -1.3739402e-01 4.45e-01 1.66e+00  -6.0 1.68e+02    -  1.00e+00 1.00e+00h  1
iter    objective    inf_pr   inf_du lg(mu)  ||d||  lg(rg) alpha_du alpha_pr  ls
 230 -1.3739508e-01 1.40e-03 8.04e-03  -6.0 6.28e+00    -  1.00e+00 1.00e+00h  1
 231 -1.3739495e-01 4.67e-07 7.76e-06  -6.0 1.73e-01    -  1.00e+00 1.00e+00h  1
 232 -1.3796119e-01 8.28e+00 5.13e+01  -7.5 4.35e+03    -  9.21e-02 1.67e-01h  1
 233 -1.3812621e-01 8.17e+00 4.55e+01  -7.5 2.68e+03    -  3.29e-01 8.75e-02h  1
 234 -1.3853220e-01 1.08e+01 4.46e+01  -7.5 2.13e+03 -11.2 3.29e-01 2.57e-01h  1
 235 -1.3853564e-01 1.08e+01 1.17e+02  -7.5 1.89e+02  -9.0 6.24e-01 4.69e-03h  1
 236 -1.3889068e-01 5.29e+00 5.86e+01  -7.5 3.08e+02  -9.4 8.44e-02 5.17e-01h  1
 237 -1.3896164e-01 4.75e+00 5.59e+01  -7.5 1.20e+03  -9.9 1.50e-01 1.03e-01h  1
 238 -1.3903387e-01 4.78e+00 5.08e+01  -7.5 2.60e+03    -  1.36e-01 1.04e-01h  1
 239 -1.3905209e-01 4.55e+00 4.80e+01  -7.5 3.45e+02  -9.5 4.18e-03 4.83e-02h  1
iter    objective    inf_pr   inf_du lg(mu)  ||d||  lg(rg) alpha_du alpha_pr  ls
 240 -1.3908235e-01 4.12e+00 4.58e+01  -7.5 2.45e+02  -9.1 3.00e-01 9.48e-02h  1
 241 -1.3911267e-01 3.72e+00 4.17e+01  -7.5 2.75e+02  -9.5 1.26e-01 9.86e-02h  1
 242 -1.3920933e-01 2.75e+00 3.27e+01  -7.5 4.16e+02 -10.0 4.66e-01 2.91e-01h  1
 243 -1.3939518e-01 5.00e+01 2.46e+01  -7.5 3.10e+03 -10.5 3.50e-02 5.33e-01h  1
 244 -1.3945240e-01 3.86e+01 3.97e+01  -7.5 4.12e+02 -10.1 7.91e-02 2.26e-01h  1
 245 -1.3950536e-01 3.19e+01 7.33e+01  -7.5 8.19e+02 -10.5 7.17e-01 1.88e-01h  1
 246 -1.3956921e-01 2.74e+01 5.20e+01  -7.5 2.38e+03    -  9.23e-02 1.65e-01h  1
 247 -1.3957568e-01 2.68e+01 9.31e+01  -7.5 1.16e+03 -11.0 2.49e-01 2.23e-02h  1
 248 -1.3975690e-01 4.52e+01 3.00e+01  -7.5 3.05e+03    -  4.09e-01 5.10e-01h  1
 249 -1.3976242e-01 4.43e+01 7.88e+01  -7.5 2.30e+03    -  1.52e-01 2.18e-02h  1
iter    objective    inf_pr   inf_du lg(mu)  ||d||  lg(rg) alpha_du alpha_pr  ls
 250 -1.3988653e-01 2.06e+01 1.28e+02  -7.5 9.67e+02    -  5.40e-02 5.34e-01h  1
 251 -1.3996805e-01 1.44e+01 2.31e+02  -7.5 7.36e+02    -  1.91e-01 3.70e-01h  1
 252 -1.4001062e-01 1.18e+01 3.15e+01  -7.5 9.07e+02    -  3.13e-01 1.88e-01h  1
 253 -1.4014910e-01 5.10e+00 2.03e+02  -7.5 3.36e+02    -  8.04e-01 6.23e-01h  1
 254 -1.4022146e-01 3.47e+00 2.15e+01  -7.5 5.78e+02    -  2.57e-01 3.21e-01h  1
 255 -1.4028213e-01 2.55e+00 5.27e+02  -7.5 1.34e+03    -  1.17e-01 2.69e-01h  1
 256 -1.4036057e-01 1.69e+00 9.69e+01  -7.5 5.97e+02    -  3.86e-01 3.37e-01h  1
 257 -1.4038468e-01 1.61e+00 1.47e+02  -7.5 1.34e+03 -11.5 8.84e-02 9.71e-02h  1
 258 -1.4044534e-01 9.34e+00 1.17e+03  -7.5 3.38e+03    -  1.05e-01 2.39e-01h  1
 259 -1.4044596e-01 9.36e+00 1.23e+03  -7.5 3.26e+04    -  2.29e-04 2.27e-03h  1
iter    objective    inf_pr   inf_du lg(mu)  ||d||  lg(rg) alpha_du alpha_pr  ls
 260 -1.4044615e-01 9.36e+00 5.79e+03  -7.5 2.87e+04    -  6.33e-02 6.17e-04h  1
 261 -1.4044823e-01 9.27e+00 3.32e+03  -7.5 1.08e+04    -  3.79e-03 9.29e-03h  1
 262 -1.4049841e-01 1.25e+01 2.89e+03  -7.5 1.85e+03    -  1.12e-01 3.94e-01h  1
 263 -1.4050146e-01 1.27e+01 2.84e+06  -7.5 2.03e+03    -  4.19e-04 2.50e-01h  3
 264 -1.4052063e-01 1.13e+01 1.59e+06  -7.5 2.17e+03    -  4.95e-02 4.38e-01H  1
 265 -1.4052562e-01 1.41e+01 9.80e+02  -7.5 9.89e+02    -  9.57e-04 1.00e+00f  1
 266 -1.4053563e-01 4.52e+00 2.89e+02  -7.5 5.40e+02    -  7.98e-02 1.00e+00h  1
 267 -1.4053699e-01 1.69e-01 9.96e+01  -7.5 1.01e+02 -10.2 6.61e-01 1.00e+00h  1
 268 -1.4057342e-01 6.75e+01 1.11e+02  -7.5 1.22e+04    -  1.28e-01 1.74e-01h  1
 269 -1.4055832e-01 4.97e+01 1.14e+02  -7.5 2.02e+03    -  1.75e-01 4.94e-01h  1
iter    objective    inf_pr   inf_du lg(mu)  ||d||  lg(rg) alpha_du alpha_pr  ls
 270 -1.4054608e-01 6.16e+00 1.01e+02  -7.5 6.71e+02    -  1.52e-03 1.00e+00h  1
 271 -1.4056204e-01 1.58e+01 3.05e+01  -7.5 1.01e+03    -  1.00e+00 1.00e+00h  1
 272 -1.4058805e-01 5.83e+01 1.27e+02  -7.5 4.38e+03    -  3.80e-01 3.98e-01h  1
 273 -1.4060789e-01 4.93e+01 2.32e+02  -7.5 1.63e+03    -  7.93e-02 1.00e+00h  1
 274 -1.4060412e-01 1.02e+00 9.22e+01  -7.5 2.81e+02    -  6.67e-02 1.00e+00h  1
 275 -1.4060652e-01 1.92e+00 3.91e+00  -7.5 1.91e+02 -10.6 5.68e-01 1.00e+00h  1
 276 -1.4060729e-01 1.99e-01 6.03e-01  -7.5 5.94e+01 -10.2 1.00e+00 1.00e+00h  1
 277 -1.4061909e-01 1.55e+01 6.84e+01  -7.5 1.08e+03    -  2.48e-01 8.41e-01h  1
 278 -1.4060922e-01 1.07e+01 4.22e+01  -7.5 7.45e+02    -  1.00e+00 1.00e+00h  1
 279 -1.4061937e-01 1.19e+01 4.79e+01  -7.5 7.84e+02    -  1.00e+00 9.88e-01h  1
iter    objective    inf_pr   inf_du lg(mu)  ||d||  lg(rg) alpha_du alpha_pr  ls
 280 -1.4062012e-01 5.23e-02 2.13e+00  -7.5 5.00e+01    -  1.00e+00 1.00e+00h  1
 281 -1.4062001e-01 1.26e-03 1.81e-02  -7.5 7.96e+00    -  9.84e-01 1.00e+00h  1
 282 -1.4062002e-01 1.78e-05 1.25e-04  -7.5 9.40e-01    -  1.00e+00 1.00e+00h  1
 283 -1.4062002e-01 2.54e-08 1.69e-07  -7.5 3.55e-02    -  1.00e+00 1.00e+00h  1
 284 -1.4062328e-01 9.23e-02 2.40e+00  -9.0 2.59e+02    -  2.88e-01 3.04e-01h  1
 285 -1.4063019e-01 2.10e+01 7.95e+01  -9.0 1.17e+05    -  2.16e-02 8.78e-03h  1
 286 -1.4063790e-01 2.77e+01 1.19e+02  -9.0 3.62e+03    -  1.86e-01 2.32e-01h  1
 287 -1.4064255e-01 2.74e+01 1.26e+02  -9.0 4.34e+03    -  2.91e-01 1.62e-01h  1
 288 -1.4064967e-01 4.42e+01 1.33e+02  -9.0 3.43e+03    -  3.20e-01 3.66e-01h  1
 289 -1.4065356e-01 4.07e+01 2.54e+01  -9.0 1.55e+03    -  1.00e-02 8.19e-01h  1
iter    objective    inf_pr   inf_du lg(mu)  ||d||  lg(rg) alpha_du alpha_pr  ls
 290 -1.4065068e-01 1.55e-01 7.70e+00  -9.0 1.02e+02    -  4.01e-02 1.00e+00h  1
 291 -1.4065131e-01 8.47e-02 7.37e-01  -9.0 6.42e+01    -  1.00e+00 1.00e+00h  1
 292 -1.4065130e-01 2.12e-02 8.98e-02  -9.0 3.22e+01    -  1.00e+00 1.00e+00h  1
 293 -1.4065129e-01 6.76e-08 1.75e-05  -9.0 3.78e-02    -  1.00e+00 1.00e+00h  1
 294 -1.4065129e-01 1.81e-10 2.61e-12  -9.0 2.83e-05    -  1.00e+00 1.00e+00h  1

Number of Iterations....: 294

                                   (scaled)                 (unscaled)
Objective...............:  -1.4065129338053234e-01   -1.4065129338053234e-01
Dual infeasibility......:   2.6050661431351648e-12    2.6050661431351648e-12
Constraint violation....:   1.8109142993754518e-10    1.8109142993754518e-10
Complementarity.........:   9.0909098744884758e-10    9.0909098744884758e-10
Overall NLP error.......:   9.0909098744884758e-10    9.0909098744884758e-10


Number of objective function evaluations             = 568
Number of objective gradient evaluations             = 295
Number of equality constraint evaluations            = 568
Number of inequality constraint evaluations          = 569
Number of equality constraint Jacobian evaluations   = 302
Number of inequality constraint Jacobian evaluations = 302
Number of Lagrangian Hessian evaluations             = 294
Total CPU secs in IPOPT (w/o function evaluations)   =    127.343
Total CPU secs in NLP function evaluations           =      5.368

EXIT: Optimal Solution Found.
